param set_len = 20;
param target_sum = 5869162168;
param values := [1] 1014104596 [2] 380307758 [3] 769063901 [4] 251481245 [5] 165283896 [6] 362236232 [7] 780696571 [8] 717311086 [9] 205808277 [10] 541135930 [11] 977957696 [12] 530292188 [13] 940018457 [14] 684100592 [15] 285254957 [16] 841079273 [17] 423803742 [18] 43889825 [19] 563265585 [20] 970339092 ;
